bachelor/Metodos_de_Apoio_a_Decisao_AMPL/ssp.dat
data;
set V:= a b c d e f;
set E:= 
(a,c)
(a,f)
(b,f)
(b,d)
(c,e);